NAME : kroE100-C-3-0-a.24383.tour
COMMENT : Length = 24383
COMMENT : Found by LKH-3 [Keld Helsgaun] Tue Jul 30 13:14:12 2024
TYPE : TOUR
DIMENSION : 100
TOUR_SECTION
1
8
65
5
42
90
48
68
38
33
22
39
43
86
19
94
18
24
29
100
78
53
34
6
70
37
77
85
96
11
2
4
82
92
27
67
87
41
75
13
55
91
93
30
66
31
9
57
80
10
97
25
54
45
99
40
35
88
63
58
32
12
76
7
21
74
83
73
16
71
61
14
52
44
72
89
81
79
26
46
3
47
69
51
98
59
95
36
28
64
23
15
20
56
49
50
60
17
84
62
-1
EOF
